280
0	288.0	149.0
1	288.0	129.0
2	270.0	133.0
3	256.0	141.0
4	256.0	157.0
5	246.0	157.0
6	236.0	169.0
7	228.0	169.0
8	228.0	161.0
9	220.0	169.0
10	212.0	169.0
11	204.0	169.0
12	196.0	169.0
13	188.0	169.0
14	196.0	161.0
15	188.0	145.0
16	172.0	145.0
17	164.0	145.0
18	156.0	145.0
19	148.0	145.0
20	140.0	145.0
21	148.0	169.0
22	164.0	169.0
23	172.0	169.0
24	156.0	169.0
25	140.0	169.0
26	132.0	169.0
27	124.0	169.0
28	116.0	161.0
29	104.0	153.0
30	104.0	161.0
31	104.0	169.0
32	90.0	165.0
33	80.0	157.0
34	64.0	157.0
35	64.0	165.0
36	56.0	169.0
37	56.0	161.0
38	56.0	153.0
39	56.0	145.0
40	56.0	137.0
41	56.0	129.0
42	56.0	121.0
43	40.0	121.0
44	40.0	129.0
45	40.0	137.0
46	40.0	145.0
47	40.0	153.0
48	40.0	161.0
49	40.0	169.0
50	32.0	169.0
51	32.0	161.0
52	32.0	153.0
53	32.0	145.0
54	32.0	137.0
55	32.0	129.0
56	32.0	121.0
57	32.0	113.0
58	40.0	113.0
59	56.0	113.0
60	56.0	105.0
61	48.0	99.0
62	40.0	99.0
63	32.0	97.0
64	32.0	89.0
65	24.0	89.0
66	16.0	97.0
67	16.0	109.0
68	8.0	109.0
69	8.0	97.0
70	8.0	89.0
71	8.0	81.0
72	8.0	73.0
73	8.0	65.0
74	8.0	57.0
75	16.0	57.0
76	8.0	49.0
77	8.0	41.0
78	24.0	45.0
79	32.0	41.0
80	32.0	49.0
81	32.0	57.0
82	32.0	65.0
83	32.0	73.0
84	32.0	81.0
85	40.0	83.0
86	40.0	73.0
87	40.0	63.0
88	40.0	51.0
89	44.0	43.0
90	44.0	35.0
91	44.0	27.0
92	32.0	25.0
93	24.0	25.0
94	16.0	25.0
95	16.0	17.0
96	24.0	17.0
97	32.0	17.0
98	44.0	11.0
99	56.0	9.0
100	56.0	17.0
101	56.0	25.0
102	56.0	33.0
103	56.0	41.0
104	64.0	41.0
105	72.0	41.0
106	72.0	49.0
107	56.0	49.0
108	48.0	51.0
109	56.0	57.0
110	56.0	65.0
111	48.0	63.0
112	48.0	73.0
113	56.0	73.0
114	56.0	81.0
115	48.0	83.0
116	56.0	89.0
117	56.0	97.0
118	104.0	97.0
119	104.0	105.0
120	104.0	113.0
121	104.0	121.0
122	104.0	129.0
123	104.0	137.0
124	104.0	145.0
125	116.0	145.0
126	124.0	145.0
127	132.0	145.0
128	132.0	137.0
129	140.0	137.0
130	148.0	137.0
131	156.0	137.0
132	164.0	137.0
133	172.0	125.0
134	172.0	117.0
135	172.0	109.0
136	172.0	101.0
137	172.0	93.0
138	172.0	85.0
139	180.0	85.0
140	180.0	77.0
141	180.0	69.0
142	180.0	61.0
143	180.0	53.0
144	172.0	53.0
145	172.0	61.0
146	172.0	69.0
147	172.0	77.0
148	164.0	81.0
149	148.0	85.0
150	124.0	85.0
151	124.0	93.0
152	124.0	109.0
153	124.0	125.0
154	124.0	117.0
155	124.0	101.0
156	104.0	89.0
157	104.0	81.0
158	104.0	73.0
159	104.0	65.0
160	104.0	49.0
161	104.0	41.0
162	104.0	33.0
163	104.0	25.0
164	104.0	17.0
165	92.0	9.0
166	80.0	9.0
167	72.0	9.0
168	64.0	21.0
169	72.0	25.0
170	80.0	25.0
171	80.0	25.0
172	80.0	41.0
173	88.0	49.0
174	104.0	57.0
175	124.0	69.0
176	124.0	77.0
177	132.0	81.0
178	140.0	65.0
179	132.0	61.0
180	124.0	61.0
181	124.0	53.0
182	124.0	45.0
183	124.0	37.0
184	124.0	29.0
185	132.0	21.0
186	124.0	21.0
187	120.0	9.0
188	128.0	9.0
189	136.0	9.0
190	148.0	9.0
191	162.0	9.0
192	156.0	25.0
193	172.0	21.0
194	180.0	21.0
195	180.0	29.0
196	172.0	29.0
197	172.0	37.0
198	172.0	45.0
199	180.0	45.0
200	180.0	37.0
201	188.0	41.0
202	196.0	49.0
203	204.0	57.0
204	212.0	65.0
205	220.0	73.0
206	228.0	69.0
207	228.0	77.0
208	236.0	77.0
209	236.0	69.0
210	236.0	61.0
211	228.0	61.0
212	228.0	53.0
213	236.0	53.0
214	236.0	45.0
215	228.0	45.0
216	228.0	37.0
217	236.0	37.0
218	236.0	29.0
219	228.0	29.0
220	228.0	21.0
221	236.0	21.0
222	252.0	21.0
223	260.0	29.0
224	260.0	37.0
225	260.0	45.0
226	260.0	53.0
227	260.0	61.0
228	260.0	69.0
229	260.0	77.0
230	276.0	77.0
231	276.0	69.0
232	276.0	61.0
233	276.0	53.0
234	284.0	53.0
235	284.0	61.0
236	284.0	69.0
237	284.0	77.0
238	284.0	85.0
239	284.0	93.0
240	284.0	101.0
241	288.0	109.0
242	280.0	109.0
243	276.0	101.0
244	276.0	93.0
245	276.0	85.0
246	268.0	97.0
247	260.0	109.0
248	252.0	101.0
249	260.0	93.0
250	260.0	85.0
251	236.0	85.0
252	228.0	85.0
253	228.0	93.0
254	236.0	93.0
255	236.0	101.0
256	228.0	101.0
257	228.0	109.0
258	228.0	117.0
259	228.0	125.0
260	220.0	125.0
261	212.0	117.0
262	204.0	109.0
263	196.0	101.0
264	188.0	93.0
265	180.0	93.0
266	180.0	101.0
267	180.0	109.0
268	180.0	117.0
269	180.0	125.0
270	196.0	145.0
271	204.0	145.0
272	212.0	145.0
273	220.0	145.0
274	228.0	145.0
275	236.0	145.0
276	246.0	141.0
277	252.0	125.0
278	260.0	129.0
279	280.0	133.0
241	242	8.0
242	243	8.94427190999916
243	240	8.0
240	239	8.0
239	238	8.0
238	237	8.0
237	236	8.0
236	235	8.0
235	234	8.0
234	233	8.0
233	232	8.0
232	231	8.0
231	230	8.0
230	245	8.0
245	244	8.0
244	246	8.94427190999916
246	249	8.94427190999916
249	250	8.0
250	229	8.0
229	228	8.0
228	227	8.0
227	226	8.0
226	225	8.0
225	224	8.0
224	223	8.0
223	222	11.313708498984761
222	221	16.0
221	220	8.0
220	219	8.0
219	216	8.0
216	215	8.0
215	214	8.0
214	213	8.0
213	212	8.0
212	211	8.0
211	210	8.0
210	209	8.0
209	206	8.0
206	207	8.0
207	208	8.0
208	251	8.0
251	254	8.0
254	255	8.0
255	256	8.0
256	257	8.0
257	258	8.0
258	259	8.0
259	260	8.0
260	261	11.313708498984761
261	262	11.313708498984761
262	263	11.313708498984761
263	264	11.313708498984761
264	265	8.0
265	139	8.0
139	140	8.0
140	141	8.0
141	142	8.0
142	143	8.0
143	199	8.0
199	200	8.0
200	195	8.0
195	194	8.0
194	193	8.0
193	196	8.0
196	197	8.0
197	198	8.0
198	144	8.0
144	145	8.0
145	146	8.0
146	147	8.0
147	138	8.0
138	137	8.0
137	136	8.0
136	266	8.0
266	267	8.0
267	135	8.0
135	134	8.0
134	268	8.0
268	269	8.0
269	133	8.0
133	132	14.422205101855956
132	17	8.0
17	18	8.0
18	131	8.0
131	130	8.0
130	19	8.0
19	20	8.0
20	127	8.0
127	128	8.0
128	153	14.422205101855956
153	154	8.0
154	152	8.0
152	155	8.0
155	151	8.0
151	150	8.0
150	176	8.0
176	175	8.0
175	180	8.0
180	181	8.0
181	182	8.0
182	183	8.0
183	184	8.0
184	186	8.0
186	164	20.396078054371138
164	163	8.0
163	162	8.0
162	161	8.0
161	160	8.0
160	174	8.0
174	159	8.0
159	158	8.0
158	157	8.0
157	156	8.0
156	118	8.0
118	119	8.0
119	120	8.0
120	121	8.0
121	122	8.0
122	123	8.0
123	124	8.0
124	29	8.0
29	30	8.0
30	31	8.0
31	32	14.560219778561036
32	33	12.806248474865697
33	34	16.0
34	38	8.94427190999916
38	39	8.0
39	40	8.0
40	41	8.0
41	42	8.0
42	59	8.0
59	60	8.0
60	117	8.0
117	61	8.246211251235321
61	62	8.0
62	58	14.0
58	57	8.0
57	56	8.0
56	55	8.0
55	44	8.0
44	45	8.0
45	54	8.0
54	53	8.0
53	52	8.0
52	51	8.0
51	50	8.0
50	49	8.0
49	48	8.0
